NAME: CMT12_2
TYPE: CVRP
COMMENT: 819.56 - Cluster Nr.2
DIMENSION: 18
CAPACITY: 200
EDGE_WEIGHT_TYPE: EUC_2D
NODE_COORD_TYPE: TWOD_COORDS
NODE_COORD_SECTION: 
2 28 35
17 45 30
16 26 32
4 28 30
1 35 30
11 30 30
12 48 30
15 40 50
7 32 30
6 35 32
8 33 32
18 33 35
3 25 35
5 30 35
9 25 30
13 45 35
14 47 35
10 30 32
DEPOT_SECTION: 
15
-1
DEMAND_SECTION: 
10 30
6 10
5 10
7 10
14 10
15 0
1 10
3 10
13 10
16 10
8 20
17 10
2 10
18 10
12 10
4 10
9 10
11 10
EOF
